     Program PWSCF v.6.1 (svn rev. 13369) starts on 10Oct2017 at 14:54:10

     Current dimensions of program PWSCF are:
     Max number of different atomic species (ntypx) = 10
     Max number of k-points (npk) =  40000
     Max angular momentum in pseudopotentials (lmaxx) =  3

     Subspace diagonalization in iterative solution of the eigenvalue problem:
     one sub-group per band group will be used

     Found symmetry operation: I + ( -0.5000 -0.5000  0.0000)
     This is a supercell, fractional translations are disabled

     bravais-lattice index     =            0
     lattice parameter (alat)  =      30.3808  a.u.
     unit-cell volume          =   28041.2070 (a.u.)^3
     number of atoms/cell      =          320
     number of atomic types    =            3
     number of electrons       =      2560.00
     number of Kohn-Sham states=         1280
     kinetic-energy cutoff     =      40.0000  Ry
     charge density cutoff     =     320.0000  Ry
     convergence threshold     =      1.0E-09
     mixing beta               =       0.7000
     number of iterations used =            8  plain     mixing
     Exchange-correlation      =  SLA  PW   PBX  PBC ( 1  4  3  4 0 0)

     celldm(1)=  30.380779  celldm(2)=   0.000000  celldm(3)=   0.000000
     celldm(4)=   0.000000  celldm(5)=   0.000000  celldm(6)=   0.000000

     crystal axes: (cart. coord. in units of alat)
               a(1) = (   1.000000   0.000000   0.000000 )
               a(2) = (   0.000000   1.000000   0.000000 )
               a(3) = (   0.000000   0.000000   1.000000 )

     reciprocal axes: (cart. coord. in units 2 pi/alat)
               b(1) = (  1.000000  0.000000  0.000000 )
               b(2) = (  0.000000  1.000000  0.000000 )
               b(3) = (  0.000000  0.000000  1.000000 )

     PseudoPot. # 1 for Ba read from file:
     ./pseudo/Ba_ONCV_PBE-1.0.upf
     MD5 check sum: 77f30730067903d6b11ccba3a1a50403
     Pseudo is Norm-conserving, Zval = 10.0
     Generated using ONCVPSP code by D. R. Hamann
     Using radial grid of  602 points,  8 beta functions with:
                l(1) =   0
                l(2) =   0
                l(3) =   1
                l(4) =   1
                l(5) =   2
                l(6) =   2
                l(7) =   3
                l(8) =   3

     PseudoPot. # 2 for O  read from file:
     ./pseudo/O_pbe_v1.2.uspp.F.UPF
     MD5 check sum: 734c27235a0248c51dbae37a1fbe46ec
     Pseudo is Ultrasoft + core correction, Zval =  6.0
     Generated by new atomic code, or converted to UPF format
     Using radial grid of  737 points,  5 beta functions with:
                l(1) =   0
                l(2) =   0
                l(3) =   1
                l(4) =   1
                l(5) =   2
     Q(r) pseudized with  8 coefficients,  rinner =    0.900   0.900   0.900
                                                       0.900   0.900

     PseudoPot. # 3 for Ti read from file:
     ./pseudo/ti_pbe_v1.4.uspp.F.UPF
     MD5 check sum: 88a00a6731bd790ddea75d31a80cb452
     Pseudo is Ultrasoft + core correction, Zval = 12.0
     Generated by new atomic code, or converted to UPF format
     Using radial grid of  851 points,  6 beta functions with:
                l(1) =   0
                l(2) =   0
                l(3) =   1
                l(4) =   1
                l(5) =   2
                l(6) =   2
     Q(r) pseudized with  6 coefficients,  rinner =    1.000   1.000   1.000
                                                       1.000   1.000

     atomic species   valence    mass     pseudopotential
        Ba            10.00   137.33000     Ba( 1.00)
        O              6.00    15.99940     O ( 1.00)
        Ti            12.00    47.88000     Ti( 1.00)

     No symmetry found

                                    s                        frac. trans.

      isym =  1     identity

 cryst.   s( 1) = (     1          0          0      )
                  (     0          1          0      )
                  (     0          0          1      )

 cart.    s( 1) = (  1.0000000  0.0000000  0.0000000 )
                  (  0.0000000  1.0000000  0.0000000 )
                  (  0.0000000  0.0000000  1.0000000 )

   Cartesian axes

     site n.     atom                  positions (alat units)
         1           Ba  tau(   1) = (   0.0000000   0.0000000   0.0000000  )
         2           Ba  tau(   2) = (   0.5000000   0.5000000   0.0000000  )
         3           Ba  tau(   3) = (   0.0000000   0.7500000   0.2500000  )
         4           Ba  tau(   4) = (   0.7500000   0.0000000   0.7500000  )
         5           Ba  tau(   5) = (   0.2500000   0.5000000   0.0000000  )
         6           Ba  tau(   6) = (   0.0000000   0.7500000   0.0000000  )
         7           Ba  tau(   7) = (   0.5000000   0.2500000   0.7500000  )
         8           Ba  tau(   8) = (   0.7500000   0.2500000   0.0000000  )
         9           Ba  tau(   9) = (   0.7500000   0.0000000   0.5000000  )
        10           Ba  tau(  10) = (   0.0000000   0.5000000   0.7500000  )
        11           Ba  tau(  11) = (   0.7500000   0.2500000   0.2500000  )
        12           Ba  tau(  12) = (   0.0000000   0.5000000   0.5000000  )
        13           Ba  tau(  13) = (   0.5000000   0.7500000   0.0000000  )
        14           Ba  tau(  14) = (   0.7500000   0.2500000   0.5000000  )
        15           Ba  tau(  15) = (   0.0000000   0.5000000   0.2500000  )
        16           Ba  tau(  16) = (   0.2500000   0.5000000   0.5000000  )
        17           Ba  tau(  17) = (   0.7500000   0.2500000   0.7500000  )
        18           Ba  tau(  18) = (   0.2500000   0.5000000   0.2500000  )
        19           Ba  tau(  19) = (   0.5000000   0.2500000   0.2500000  )
        20           Ba  tau(  20) = (   0.2500000   0.2500000   0.7500000  )
        21           Ba  tau(  21) = (   0.7500000   0.0000000   0.2500000  )
        22           Ba  tau(  22) = (   0.2500000   0.2500000   0.0000000  )
        23           Ba  tau(  23) = (   0.2500000   0.0000000   0.7500000  )
        24           Ba  tau(  24) = (   0.5000000   0.5000000   0.7500000  )
        25           Ba  tau(  25) = (   0.5000000   0.7500000   0.2500000  )
        26           Ba  tau(  26) = (   0.2500000   0.0000000   0.5000000  )
        27           Ba  tau(  27) = (   0.2500000   0.2500000   0.2500000  )
        28           Ba  tau(  28) = (   0.5000000   0.7500000   0.5000000  )
        29           Ba  tau(  29) = (   0.0000000   0.7500000   0.5000000  )
        30           Ba  tau(  30) = (   0.2500000   0.0000000   0.2500000  )
        31           Ba  tau(  31) = (   0.5000000   0.7500000   0.7500000  )
        32           Ba  tau(  32) = (   0.2500000   0.0000000   0.0000000  )
        33           Ba  tau(  33) = (   0.5000000   0.0000000   0.0000000  )
        34           Ba  tau(  34) = (   0.2500000   0.2500000   0.5000000  )
        35           Ba  tau(  35) = (   0.7500000   0.0000000   0.0000000  )
        36           Ba  tau(  36) = (   0.0000000   0.7500000   0.7500000  )
        37           Ba  tau(  37) = (   0.5000000   0.5000000   0.2500000  )
        38           Ba  tau(  38) = (   0.5000000   0.5000000   0.5000000  )
        39           Ba  tau(  39) = (   0.0000000   0.5000000   0.0000000  )
        40           Ba  tau(  40) = (   0.5000000   0.2500000   0.5000000  )
        41           Ba  tau(  41) = (   0.2500000   0.7500000   0.2500000  )
        42           Ba  tau(  42) = (   0.7500000   0.7500000   0.0000000  )
        43           Ba  tau(  43) = (   0.7500000   0.7500000   0.2500000  )
        44           Ba  tau(  44) = (   0.2500000   0.7500000   0.5000000  )
        45           Ba  tau(  45) = (   0.0000000   0.2500000   0.0000000  )
        46           Ba  tau(  46) = (   0.0000000   0.0000000   0.5000000  )
        47           Ba  tau(  47) = (   0.7500000   0.5000000   0.7500000  )
        48           Ba  tau(  48) = (   0.5000000   0.0000000   0.2500000  )
        49           Ba  tau(  49) = (   0.5000000   0.0000000   0.7500000  )
        50           Ba  tau(  50) = (   0.0000000   0.2500000   0.2500000  )
        51           Ba  tau(  51) = (   0.7500000   0.7500000   0.5000000  )
        52           Ba  tau(  52) = (   0.5000000   0.0000000   0.5000000  )
        53           Ba  tau(  53) = (   0.2500000   0.7500000   0.0000000  )
        54           Ba  tau(  54) = (   0.7500000   0.5000000   0.5000000  )
        55           Ba  tau(  55) = (   0.0000000   0.0000000   0.7500000  )
        56           Ba  tau(  56) = (   0.0000000   0.2500000   0.5000000  )
        57           Ba  tau(  57) = (   0.7500000   0.5000000   0.0000000  )
        58           Ba  tau(  58) = (   0.2500000   0.5000000   0.7500000  )
        59           Ba  tau(  59) = (   0.7500000   0.5000000   0.2500000  )
        60           Ba  tau(  60) = (   0.2500000   0.7500000   0.7500000  )
[...]
       306           O   tau( 306) = (   0.3750000   0.7500000   0.6250000  )
       307           O   tau( 307) = (   0.2500000   0.8750000   0.6250000  )
       308           O   tau( 308) = (   0.3750000   0.5000000   0.8750000  )
       309           O   tau( 309) = (   0.3750000   0.3750000   0.7500000  )
       310           O   tau( 310) = (   0.3750000   0.5000000   0.3750000  )
       311           O   tau( 311) = (   0.7500000   0.8750000   0.8750000  )
       312           O   tau( 312) = (   0.2500000   0.3750000   0.6250000  )
       313           O   tau( 313) = (   0.3750000   0.3750000   0.0000000  )
       314           O   tau( 314) = (   0.3750000   0.2500000   0.6250000  )
       315           O   tau( 315) = (   0.3750000   0.3750000   0.2500000  )
       316           O   tau( 316) = (   0.3750000   0.3750000   0.5000000  )
       317           O   tau( 317) = (   0.2500000   0.3750000   0.3750000  )
       318           O   tau( 318) = (   0.3750000   0.2500000   0.3750000  )
       319           O   tau( 319) = (   0.2500000   0.3750000   0.1250000  )
       320           O   tau( 320) = (   0.3750000   0.2500000   0.1250000  )

   Crystallographic axes

     site n.     atom                  positions (cryst. coord.)
         1           Ba  tau(   1) = (  0.0000000  0.0000000  0.0000000  )
         2           Ba  tau(   2) = (  0.5000000  0.5000000  0.0000000  )
         3           Ba  tau(   3) = (  0.0000000  0.7500000  0.2500000  )
         4           Ba  tau(   4) = (  0.7500000  0.0000000  0.7500000  )
         5           Ba  tau(   5) = (  0.2500000  0.5000000  0.0000000  )
         6           Ba  tau(   6) = (  0.0000000  0.7500000  0.0000000  )
         7           Ba  tau(   7) = (  0.5000000  0.2500000  0.7500000  )
         8           Ba  tau(   8) = (  0.7500000  0.2500000  0.0000000  )
         9           Ba  tau(   9) = (  0.7500000  0.0000000  0.5000000  )
        10           Ba  tau(  10) = (  0.0000000  0.5000000  0.7500000  )
        11           Ba  tau(  11) = (  0.7500000  0.2500000  0.2500000  )
        12           Ba  tau(  12) = (  0.0000000  0.5000000  0.5000000  )
[...]
        31           Ba  tau(  31) = (  0.5000000  0.7500000  0.7500000  )
        32           Ba  tau(  32) = (  0.2500000  0.0000000  0.0000000  )
        33           Ba  tau(  33) = (  0.5000000  0.0000000  0.0000000  )
        34           Ba  tau(  34) = (  0.2500000  0.2500000  0.5000000  )
        35           Ba  tau(  35) = (  0.7500000  0.0000000  0.0000000  )
        36           Ba  tau(  36) = (  0.0000000  0.7500000  0.7500000  )
        37           Ba  tau(  37) = (  0.5000000  0.5000000  0.2500000  )
        38           Ba  tau(  38) = (  0.5000000  0.5000000  0.5000000  )
        39           Ba  tau(  39) = (  0.0000000  0.5000000  0.0000000  )
        40           Ba  tau(  40) = (  0.5000000  0.2500000  0.5000000  )
        41           Ba  tau(  41) = (  0.2500000  0.7500000  0.2500000  )
        42           Ba  tau(  42) = (  0.7500000  0.7500000  0.0000000  )
        43           Ba  tau(  43) = (  0.7500000  0.7500000  0.2500000  )
        44           Ba  tau(  44) = (  0.2500000  0.7500000  0.5000000  )
        45           Ba  tau(  45) = (  0.0000000  0.2500000  0.0000000  )
        46           Ba  tau(  46) = (  0.0000000  0.0000000  0.5000000  )
        47           Ba  tau(  47) = (  0.7500000  0.5000000  0.7500000  )
        48           Ba  tau(  48) = (  0.5000000  0.0000000  0.2500000  )
        49           Ba  tau(  49) = (  0.5000000  0.0000000  0.7500000  )
        50           Ba  tau(  50) = (  0.0000000  0.2500000  0.2500000  )
        51           Ba  tau(  51) = (  0.7500000  0.7500000  0.5000000  )
        52           Ba  tau(  52) = (  0.5000000  0.0000000  0.5000000  )
        53           Ba  tau(  53) = (  0.2500000  0.7500000  0.0000000  )
        54           Ba  tau(  54) = (  0.7500000  0.5000000  0.5000000  )
        55           Ba  tau(  55) = (  0.0000000  0.0000000  0.7500000  )
        56           Ba  tau(  56) = (  0.0000000  0.2500000  0.5000000  )
        57           Ba  tau(  57) = (  0.7500000  0.5000000  0.0000000  )
        58           Ba  tau(  58) = (  0.2500000  0.5000000  0.7500000  )
        59           Ba  tau(  59) = (  0.7500000  0.5000000  0.2500000  )
        60           Ba  tau(  60) = (  0.2500000  0.7500000  0.7500000  )
[...]
       306           O   tau( 306) = (  0.3750000  0.7500000  0.6250000  )
       307           O   tau( 307) = (  0.2500000  0.8750000  0.6250000  )
       308           O   tau( 308) = (  0.3750000  0.5000000  0.8750000  )
       309           O   tau( 309) = (  0.3750000  0.3750000  0.7500000  )
       310           O   tau( 310) = (  0.3750000  0.5000000  0.3750000  )
       311           O   tau( 311) = (  0.7500000  0.8750000  0.8750000  )
       312           O   tau( 312) = (  0.2500000  0.3750000  0.6250000  )
       313           O   tau( 313) = (  0.3750000  0.3750000  0.0000000  )
       314           O   tau( 314) = (  0.3750000  0.2500000  0.6250000  )
       315           O   tau( 315) = (  0.3750000  0.3750000  0.2500000  )
       316           O   tau( 316) = (  0.3750000  0.3750000  0.5000000  )
       317           O   tau( 317) = (  0.2500000  0.3750000  0.3750000  )
       318           O   tau( 318) = (  0.3750000  0.2500000  0.3750000  )
       319           O   tau( 319) = (  0.2500000  0.3750000  0.1250000  )
       320           O   tau( 320) = (  0.3750000  0.2500000  0.1250000  )

     number of k points=     1
                       cart. coord. in units 2pi/alat
        k(    1) = (   0.0000000   0.0000000   0.0000000), wk =   2.0000000

                       cryst. coord.
        k(    1) = (   0.0000000   0.0000000   0.0000000), wk =   2.0000000

     Check: negative/imaginary core charge=   -0.000008    0.000000

     Initial potential from superposition of free atoms
     Check: negative starting charge=   -0.060831

     starting charge 2470.92180, renormalised to 2560.00000

     negative rho (up, down):  6.302E-02 0.000E+00
     Starting wfc are 1408 randomized atomic wfcs

     Self-consistent Calculation

     iteration #  1     ecut=    40.00 Ry     beta=0.70
     Davidson diagonalization with overlap
     ethr =  1.00E-02,  avg # of iterations =  8.0

     negative rho (up, down):  1.515E-01 0.000E+00

     total energy              =  -17141.45831690 Ry
     Harris-Foulkes estimate   =  -17182.83406006 Ry
     estimated scf accuracy    <      52.01092567 Ry

[...]

     total energy              =  -17172.21364220 Ry
     Harris-Foulkes estimate   =  -17172.21364220 Ry
     estimated scf accuracy    <          2.3E-09 Ry

     iteration # 25     ecut=    40.00 Ry     beta=0.70
     Davidson diagonalization with overlap
     ethr =  1.00E-13,  avg # of iterations =  3.0

     negative rho (up, down):  5.449E-02 0.000E+00

     End of self-consistent calculation

          k = 0.0000 0.0000 0.0000 (119825 PWs)   bands (ev):

   -46.5546 -46.5543 -46.5543 -46.5543 -46.5543 -46.5543 -46.5543 -46.5540
   -46.5540 -46.5540 -46.5540 -46.5540 -46.5540 -46.5540 -46.5540 -46.5540
   -46.5540 -46.5540 -46.5540 -46.5540 -46.5540 -46.5540 -46.5537 -46.5537
   -46.5537 -46.5537 -46.5537 -46.5537 -46.5537 -46.5537 -46.5537 -46.5537
   -46.5537 -46.5537 -46.5537 -46.5537 -46.5537 -46.5537 -46.5537 -46.5537
   -46.5537 -46.5537 -46.5534 -46.5534 -46.5534 -46.5534 -46.5534 -46.5534
   -46.5534 -46.5534 -46.5534 -46.5534 -46.5534 -46.5534 -46.5534 -46.5534
   -46.5534 -46.5531 -46.5531 -46.5531 -46.5531 -46.5531 -46.5531 -46.5527
   -22.8161 -22.8161 -22.8161 -22.8145 -22.8145 -22.8145 -22.8145 -22.8145
   -22.8145 -22.8145 -22.8145 -22.8145 -22.8145 -22.8145 -22.8145 -22.8131
   -22.8131 -22.8131 -22.8131 -22.8131 -22.8131 -22.8131 -22.8131 -22.8131
   -22.8131 -22.8131 -22.8131 -22.8129 -22.8129 -22.8129 -22.8129 -22.8129
   -22.8129 -22.8117 -22.8117 -22.8117 -22.8117 -22.8117 -22.8117 -22.8117
   -22.8117 -22.8117 -22.8117 -22.8117 -22.8117 -22.8105 -22.8105 -22.8105
   -22.7927 -22.7927 -22.7927 -22.7927 -22.7927 -22.7927 -22.7918 -22.7918
   -22.7918 -22.7918 -22.7918 -22.7918 -22.7918 -22.7918 -22.7918 -22.7918
   -22.7918 -22.7918 -22.7911 -22.7911 -22.7911 -22.7911 -22.7911 -22.7911
   -22.7911 -22.7911 -22.7911 -22.7911 -22.7911 -22.7911 -22.7908 -22.7908
   -22.7908 -22.7908 -22.7907 -22.7907 -22.7907 -22.7907 -22.7901 -22.7901
   -22.7901 -22.7901 -22.7901 -22.7901 -22.7901 -22.7901 -22.7901 -22.7901
   -22.7901 -22.7901 -22.7900 -22.7900 -22.7900 -22.7900 -22.7900 -22.7900
   -22.7900 -22.7900 -22.7900 -22.7900 -22.7900 -22.7900 -22.7900 -22.7900
   -22.7900 -22.7900 -22.7892 -22.7892 -22.7892 -22.7892 -22.7892 -22.7892
   -22.7892 -22.7892 -22.7892 -22.7892 -22.7892 -22.7892 -22.7889 -22.7889
   -22.7889 -22.7889 -22.7889 -22.7889 -22.7889 -22.7889 -22.7889 -22.7889
   -22.7889 -22.7889 -22.7880 -22.7880 -22.7880 -22.7880 -22.7880 -22.7880
   -22.7691 -22.7691 -22.7691 -22.7681 -22.7681 -22.7681 -22.7681 -22.7681
   -22.7681 -22.7681 -22.7681 -22.7681 -22.7681 -22.7681 -22.7681 -22.7672
   -22.7672 -22.7672 -22.7672 -22.7672 -22.7672 -22.7672 -22.7672 -22.7672
   -22.7672 -22.7672 -22.7672 -22.7671 -22.7671 -22.7671 -22.7671 -22.7671
   -22.7671 -22.7662 -22.7662 -22.7662 -22.7662 -22.7662 -22.7662 -22.7662
   -22.7662 -22.7662 -22.7662 -22.7662 -22.7662 -22.7652 -22.7652 -22.7652
   -14.5785 -14.5225 -14.5225 -14.5225 -14.5225 -14.5225 -14.5225 -14.4761
   -14.4761 -14.4761 -14.4761 -14.4761 -14.4761 -14.4761 -14.4761 -14.4761
   -14.4761 -14.4761 -14.4761 -14.4650 -14.4650 -14.4650 -14.4357 -14.4357
   -14.4357 -14.4357 -14.4357 -14.4357 -14.4357 -14.4357 -14.4286 -14.4286
   -14.4286 -14.4286 -14.4286 -14.4286 -14.4286 -14.4286 -14.4286 -14.4286
   -14.4286 -14.4286 -14.3945 -14.3945 -14.3945 -14.3945 -14.3945 -14.3945
   -14.3945 -14.3945 -14.3945 -14.3945 -14.3945 -14.3945 -14.3914 -14.3914
   -14.3914 -14.3599 -14.3599 -14.3599 -14.3599 -14.3599 -14.3599 -14.3279
    -6.9049  -6.9049  -6.9049  -6.7602  -6.7602  -6.7602  -6.7602  -6.7602
    -6.7602  -6.6965  -6.6552  -6.6552  -6.6552  -6.6552  -6.6552  -6.6552
    -6.6552  -6.6552  -6.6552  -6.6552  -6.6552  -6.6552  -6.6511  -6.6511
    -6.6511  -6.6511  -6.6511  -6.6511  -6.6511  -6.6511  -6.6511  -6.6511
    -6.6511  -6.6511  -6.4849  -6.4849  -6.4849  -6.4849  -6.4849  -6.4849
    -6.4849  -6.4849  -6.3957  -6.3957  -6.3957  -6.3957  -6.3957  -6.3957
    -6.3957  -6.3957  -6.3957  -6.3957  -6.3957  -6.3957  -6.3366  -6.3366
    -6.3366  -6.0775  -6.0775  -6.0775  -6.0775  -6.0775  -6.0775  -6.0189
    -6.0189  -6.0031  -6.0031  -6.0031  -6.0031  -6.0031  -6.0031  -5.9946
    -5.9946  -5.9946  -5.9946  -5.9946  -5.9946  -5.9946  -5.9946  -5.9946
    -5.9946  -5.9946  -5.9946  -5.9872  -5.9872  -5.9872  -5.9659  -5.9659
    -5.9659  -5.9659  -5.9659  -5.9659  -5.9527  -5.9527  -5.9527  -5.9527
    -5.9527  -5.9527  -5.9527  -5.9527  -5.9527  -5.9527  -5.9527  -5.9527
    -5.9463  -5.9463  -5.9463  -5.9463  -5.9463  -5.9463  -5.9463  -5.9463
    -5.9463  -5.9463  -5.9463  -5.9463  -5.9463  -5.9463  -5.9463  -5.9463
    -5.9346  -5.9346  -5.9346  -5.9346  -5.9346  -5.9346  -5.9346  -5.9346
    -5.9346  -5.9346  -5.9346  -5.9346  -5.9323  -5.9323  -5.9323  -5.9323
    -5.9323  -5.9323  -5.8963  -5.8963  -5.8963  -5.8963  -5.8963  -5.8963
    -5.8963  -5.8963  -5.8963  -5.8963  -5.8963  -5.8963  -5.8849  -5.8849
    -5.8849  -5.8849  -5.8849  -5.8849  -5.8849  -5.8849  -5.8849  -5.8849
[...]
     9.2419   9.2419   9.2419   9.4032   9.4032   9.4032   9.4032   9.4032
     9.4032   9.4032   9.4032   9.4032   9.4032   9.4032   9.4032   9.4032
     9.4032   9.4032   9.4032   9.4075   9.4075   9.4075   9.4075   9.4075
     9.4075   9.5094   9.5094   9.5094   9.5094   9.5094   9.5094   9.5094
     9.5094   9.5173   9.5173   9.5173   9.5173   9.5173   9.5173   9.5173
     9.5173   9.5173   9.5173   9.5173   9.5173   9.5831   9.5831   9.5831
     9.5831   9.5831   9.5831   9.5831   9.5831   9.5831   9.5831   9.5831
     9.5831   9.6090   9.6090   9.6090   9.6090   9.6090   9.6090   9.6090
     9.6090   9.6090   9.6090   9.6090   9.6090   9.6154   9.6154   9.6154
     9.6154   9.6154   9.6154   9.6155   9.6155   9.6155   9.6155   9.6155
     9.6155   9.6274   9.6274   9.6274   9.6274   9.6274   9.6274   9.6274
     9.6274   9.6274   9.6274   9.6274   9.6274   9.6416   9.6416   9.6416
     9.6416   9.6416   9.6416   9.6416   9.6416   9.6416   9.6416   9.6416
     9.6416   9.9633   9.9633   9.9633  10.0364  10.0364  10.0364  10.0609
    10.0609  10.0609  10.0609  10.0609  10.0609  10.0856  10.0856  10.0856

     occupation numbers
     1.0000   1.0000   1.0000   1.0000   1.0000   1.0000   1.0000   1.0000
     1.0000   1.0000   1.0000   1.0000   1.0000   1.0000   1.0000   1.0000
     1.0000   1.0000   1.0000   1.0000   1.0000   1.0000   1.0000   1.0000
     1.0000   1.0000   1.0000   1.0000   1.0000   1.0000   1.0000   1.0000
     1.0000   1.0000   1.0000   1.0000   1.0000   1.0000   1.0000   1.0000
     1.0000   1.0000   1.0000   1.0000   1.0000   1.0000   1.0000   1.0000
     1.0000   1.0000   1.0000   1.0000   1.0000   1.0000   1.0000   1.0000
     1.0000   1.0000   1.0000   1.0000   1.0000   1.0000   1.0000   1.0000
     1.0000   1.0000   1.0000   1.0000   1.0000   1.0000   1.0000   1.0000
     1.0000   1.0000   1.0000   1.0000   1.0000   1.0000   1.0000   1.0000
     1.0000   1.0000   1.0000   1.0000   1.0000   1.0000   1.0000   1.0000
     1.0000   1.0000   1.0000   1.0000   1.0000   1.0000   1.0000   1.0000
     1.0000   1.0000   1.0000   1.0000   1.0000   1.0000   1.0000   1.0000
     1.0000   1.0000   1.0000   1.0000   1.0000   1.0000   1.0000   1.0000
     1.0000   1.0000   1.0000   1.0000   1.0000   1.0000   1.0000   1.0000
     1.0000   1.0000   1.0000   1.0000   1.0000   1.0000   1.0000   1.0000
     1.0000   1.0000   1.0000   1.0000   1.0000   1.0000   1.0000   1.0000
     1.0000   1.0000   1.0000   1.0000   1.0000   1.0000   1.0000   1.0000
     1.0000   1.0000   1.0000   1.0000   1.0000   1.0000   1.0000   1.0000
     1.0000   1.0000   1.0000   1.0000   1.0000   1.0000   1.0000   1.0000
     1.0000   1.0000   1.0000   1.0000   1.0000   1.0000   1.0000   1.0000
     1.0000   1.0000   1.0000   1.0000   1.0000   1.0000   1.0000   1.0000
     1.0000   1.0000   1.0000   1.0000   1.0000   1.0000   1.0000   1.0000
     1.0000   1.0000   1.0000   1.0000   1.0000   1.0000   1.0000   1.0000
     1.0000   1.0000   1.0000   1.0000   1.0000   1.0000   1.0000   1.0000
     1.0000   1.0000   1.0000   1.0000   1.0000   1.0000   1.0000   1.0000
     1.0000   1.0000   1.0000   1.0000   1.0000   1.0000   1.0000   1.0000
     1.0000   1.0000   1.0000   1.0000   1.0000   1.0000   1.0000   1.0000
     1.0000   1.0000   1.0000   1.0000   1.0000   1.0000   1.0000   1.0000
     1.0000   1.0000   1.0000   1.0000   1.0000   1.0000   1.0000   1.0000
     1.0000   1.0000   1.0000   1.0000   1.0000   1.0000   1.0000   1.0000
     1.0000   1.0000   1.0000   1.0000   1.0000   1.0000   1.0000   1.0000
     1.0000   1.0000   1.0000   1.0000   1.0000   1.0000   1.0000   1.0000
     1.0000   1.0000   1.0000   1.0000   1.0000   1.0000   1.0000   1.0000
     1.0000   1.0000   1.0000   1.0000   1.0000   1.0000   1.0000   1.0000
     1.0000   1.0000   1.0000   1.0000   1.0000   1.0000   1.0000   1.0000
     1.0000   1.0000   1.0000   1.0000   1.0000   1.0000   1.0000   1.0000
     1.0000   1.0000   1.0000   1.0000   1.0000   1.0000   1.0000   1.0000
     1.0000   1.0000   1.0000   1.0000   1.0000   1.0000   1.0000   1.0000
     1.0000   1.0000   1.0000   1.0000   1.0000   1.0000   1.0000   1.0000
     1.0000   1.0000   1.0000   1.0000   1.0000   1.0000   1.0000   1.0000
     1.0000   1.0000   1.0000   1.0000   1.0000   1.0000   1.0000   1.0000
     1.0000   1.0000   1.0000   1.0000   1.0000   1.0000   1.0000   1.0000
     1.0000   1.0000   1.0000   1.0000   1.0000   1.0000   1.0000   1.0000
     1.0000   1.0000   1.0000   1.0000   1.0000   1.0000   1.0000   1.0000
     1.0000   1.0000   1.0000   1.0000   1.0000   1.0000   1.0000   1.0000
     1.0000   1.0000   1.0000   1.0000   1.0000   1.0000   1.0000   1.0000
     1.0000   1.0000   1.0000   1.0000   1.0000   1.0000   1.0000   1.0000
     1.0000   1.0000   1.0000   1.0000   1.0000   1.0000   1.0000   1.0000
     1.0000   1.0000   1.0000   1.0000   1.0000   1.0000   1.0000   1.0000
     1.0000   1.0000   1.0000   1.0000   1.0000   1.0000   1.0000   1.0000
     1.0000   1.0000   1.0000   1.0000   1.0000   1.0000   1.0000   1.0000
     1.0000   1.0000   1.0000   1.0000   1.0000   1.0000   1.0000   1.0000
     1.0000   1.0000   1.0000   1.0000   1.0000   1.0000   1.0000   1.0000
     1.0000   1.0000   1.0000   1.0000   1.0000   1.0000   1.0000   1.0000
     1.0000   1.0000   1.0000   1.0000   1.0000   1.0000   1.0000   1.0000
     1.0000   1.0000   1.0000   1.0000   1.0000   1.0000   1.0000   1.0000
     1.0000   1.0000   1.0000   1.0000   1.0000   1.0000   1.0000   1.0000
     1.0000   1.0000   1.0000   1.0000   1.0000   1.0000   1.0000   1.0000
     1.0000   1.0000   1.0000   1.0000   1.0000   1.0000   1.0000   1.0000
[...]
     1.0000   1.0000   1.0000   1.0000   1.0000   1.0000   1.0000   1.0000
     1.0000   1.0000   1.0000   1.0000   1.0000   1.0000   1.0000   1.0000
     1.0000   1.0000   1.0000   1.0000   1.0000   1.0000   1.0000   1.0000
     1.0000   1.0000   1.0000   1.0000   1.0000   1.0000   1.0000   1.0000
     1.0000   1.0000   1.0000   1.0000   1.0000   1.0000   1.0000   1.0000
     1.0000   1.0000   1.0000   1.0000   1.0000   1.0000   1.0000   1.0000
     1.0000   1.0000   1.0000   1.0000   1.0000   1.0000   1.0000   1.0000
     1.0000   1.0000   1.0000   1.0000   1.0000   1.0000   1.0000   1.0000
     1.0000   1.0000   1.0000   1.0000   1.0000   1.0000   1.0000   1.0000
     1.0000   1.0000   1.0000   1.0000   1.0000   1.0000   1.0000   1.0000
     1.0000   1.0000   1.0000   1.0000   1.0000   1.0000   1.0000   1.0000
     1.0000   1.0000   1.0000   1.0000   1.0000   1.0000   1.0000   1.0000
     1.0000   1.0000   1.0000   1.0000   1.0000   1.0000   1.0000   1.0000
     1.0000   1.0000   1.0000   1.0000   1.0000   1.0000   1.0000   1.0000
     1.0000   1.0000   1.0000   1.0000   1.0000   1.0000   1.0000   1.0000

     highest occupied level (ev):    10.0856

!    total energy              =  -17172.21364220 Ry
     Harris-Foulkes estimate   =  -17172.21364220 Ry
     estimated scf accuracy    <          3.3E-10 Ry

     The total energy is the sum of the following terms:

     one-electron contribution =   -4782.57408745 Ry
     hartree contribution      =    3866.98843506 Ry
     xc contribution           =   -3042.64354794 Ry
     ewald contribution        =  -13213.98444188 Ry

     convergence has been achieved in  25 iterations

     General routines

     Parallel routines

   This run was terminated on:  15:30:16  10Oct2017

   JOB DONE.