     Program PWSCF v.6.1 starts on 10Oct2017 at 10:56:33

     Current dimensions of program PWSCF are:
     Max number of different atomic species (ntypx) = 10
     Max number of k-points (npk) =  40000
     Max angular momentum in pseudopotentials (lmaxx) =  3
     Message from routine iosys:
     minimal I/O required, wf_collect reset to FALSE

   Info: using nr1, nr2, nr3 values from input
     Found symmetry operation: I + ( -0.5000 -0.5000  0.0000)
     This is a supercell, fractional translations are disabled

     bravais-lattice index     =            0
     lattice parameter (alat)  =      30.3808  a.u.
     unit-cell volume          =   28041.2070 (a.u.)^3
     number of atoms/cell      =          320
     number of atomic types    =            3
     number of electrons       =      2560.00
     number of Kohn-Sham states=         1280
     kinetic-energy cutoff     =      40.0000  Ry
     charge density cutoff     =     320.0000  Ry
     convergence threshold     =      1.0E-09
     mixing beta               =       0.7000
     number of iterations used =            8  plain     mixing
     Exchange-correlation      =  SLA  PW   PBX  PBC ( 1  4  3  4 0 0)

     celldm(1)=  30.380779  celldm(2)=   0.000000  celldm(3)=   0.000000
     celldm(4)=   0.000000  celldm(5)=   0.000000  celldm(6)=   0.000000

     crystal axes: (cart. coord. in units of alat)
               a(1) = (   1.000000   0.000000   0.000000 )
               a(2) = (   0.000000   1.000000   0.000000 )
               a(3) = (   0.000000   0.000000   1.000000 )

     reciprocal axes: (cart. coord. in units 2 pi/alat)
               b(1) = (  1.000000  0.000000  0.000000 )
               b(2) = (  0.000000  1.000000  0.000000 )
               b(3) = (  0.000000  0.000000  1.000000 )

     PseudoPot. # 1 for Ba read from file:
     ./pseudo/Ba_ONCV_PBE-1.0.upf
     MD5 check sum: 77f30730067903d6b11ccba3a1a50403
     Pseudo is Norm-conserving, Zval = 10.0
     Generated using ONCVPSP code by D. R. Hamann
     Using radial grid of  602 points,  8 beta functions with:
                l(1) =   0
                l(2) =   0
                l(3) =   1
                l(4) =   1
                l(5) =   2
                l(6) =   2
                l(7) =   3
                l(8) =   3

     PseudoPot. # 2 for O  read from file:
     ./pseudo/O_pbe_v1.2.uspp.F.UPF
     MD5 check sum: 734c27235a0248c51dbae37a1fbe46ec
     Pseudo is Ultrasoft + core correction, Zval =  6.0
     Generated by new atomic code, or converted to UPF format
     Using radial grid of  737 points,  5 beta functions with:
                l(1) =   0
                l(2) =   0
                l(3) =   1
                l(4) =   1
                l(5) =   2
     Q(r) pseudized with  8 coefficients,  rinner =    0.900   0.900   0.900
                                                       0.900   0.900

     PseudoPot. # 3 for Ti read from file:
     ./pseudo/ti_pbe_v1.4.uspp.F.UPF
     MD5 check sum: 88a00a6731bd790ddea75d31a80cb452
     Pseudo is Ultrasoft + core correction, Zval = 12.0
     Generated by new atomic code, or converted to UPF format
     Using radial grid of  851 points,  6 beta functions with:
                l(1) =   0
                l(2) =   0
                l(3) =   1
                l(4) =   1
                l(5) =   2
                l(6) =   2
     Q(r) pseudized with  6 coefficients,  rinner =    1.000   1.000   1.000
                                                       1.000   1.000

     atomic species   valence    mass     pseudopotential
        Ba            10.00   137.33000     Ba( 1.00)
        O              6.00    15.99940     O ( 1.00)
        Ti            12.00    47.88000     Ti( 1.00)

     No symmetry found

                                    s                        frac. trans.

      isym =  1     identity

 cryst.   s( 1) = (     1          0          0      )
                  (     0          1          0      )
                  (     0          0          1      )

 cart.    s( 1) = (  1.0000000  0.0000000  0.0000000 )
                  (  0.0000000  1.0000000  0.0000000 )
                  (  0.0000000  0.0000000  1.0000000 )

   Cartesian axes

     site n.     atom                  positions (a.u.)
         1           Ba  tau(   1) = (   0.0000000   0.0000000   0.0000000  )
         2           Ba  tau(   2) = (  15.1903893  15.1903893   0.0000000  )
         3           Ba  tau(   3) = (   0.0000000  22.7855839   7.5951948  )
         4           Ba  tau(   4) = (  22.7855839   0.0000000  22.7855839  )
         5           Ba  tau(   5) = (   7.5951945  15.1903893   0.0000000  )
         6           Ba  tau(   6) = (   0.0000000  22.7855837   0.0000000  )
         7           Ba  tau(   7) = (  15.1903893   7.5951947  22.7855840  )
         8           Ba  tau(   8) = (  22.7855839   7.5951948   0.0000000  )
         9           Ba  tau(   9) = (  22.7855842   0.0000000  15.1903893  )
        10           Ba  tau(  10) = (   0.0000000  15.1903893  22.7855842  )
        11           Ba  tau(  11) = (  22.7855840   7.5951946   7.5951946  )
        12           Ba  tau(  12) = (   0.0000000  15.1903893  15.1903893  )
        13           Ba  tau(  13) = (  15.1903893  22.7855842   0.0000000  )
        14           Ba  tau(  14) = (  22.7855840   7.5951947  15.1903893  )
        15           Ba  tau(  15) = (   0.0000000  15.1903893   7.5951945  )
        16           Ba  tau(  16) = (   7.5951946  15.1903893  15.1903893  )
        17           Ba  tau(  17) = (  22.7855840   7.5951946  22.7855840  )
        18           Ba  tau(  18) = (   7.5951947  15.1903893   7.5951947  )
        19           Ba  tau(  19) = (  15.1903893   7.5951947   7.5951947  )
        20           Ba  tau(  20) = (   7.5951946   7.5951946  22.7855840  )
        21           Ba  tau(  21) = (  22.7855839   0.0000000   7.5951948  )
        22           Ba  tau(  22) = (   7.5951948   7.5951948   0.0000000  )
        23           Ba  tau(  23) = (   7.5951948   0.0000000  22.7855839  )
        24           Ba  tau(  24) = (  15.1903893  15.1903893  22.7855841  )
        25           Ba  tau(  25) = (  15.1903893  22.7855840   7.5951947  )
        26           Ba  tau(  26) = (   7.5951945   0.0000000  15.1903893  )
        27           Ba  tau(  27) = (   7.5951946   7.5951946   7.5951946  )
        28           Ba  tau(  28) = (  15.1903893  22.7855841  15.1903893  )
        29           Ba  tau(  29) = (   0.0000000  22.7855842  15.1903893  )
        30           Ba  tau(  30) = (   7.5951948   0.0000000   7.5951948  )
        31           Ba  tau(  31) = (  15.1903893  22.7855840  22.7855840  )
        32           Ba  tau(  32) = (   7.5951950   0.0000000   0.0000000  )
        33           Ba  tau(  33) = (  15.1903893   0.0000000   0.0000000  )
        34           Ba  tau(  34) = (   7.5951947   7.5951947  15.1903893  )
        35           Ba  tau(  35) = (  22.7855837   0.0000000   0.0000000  )
        36           Ba  tau(  36) = (   0.0000000  22.7855839  22.7855839  )
        37           Ba  tau(  37) = (  15.1903893  15.1903893   7.5951946  )
        38           Ba  tau(  38) = (  15.1903893  15.1903893  15.1903893  )
        39           Ba  tau(  39) = (   0.0000000  15.1903893   0.0000000  )
        40           Ba  tau(  40) = (  15.1903893   7.5951946  15.1903893  )
        41           Ba  tau(  41) = (   7.5951946  22.7855840   7.5951946  )
        42           Ba  tau(  42) = (  22.7855839  22.7855839   0.0000000  )
        43           Ba  tau(  43) = (  22.7855840  22.7855840   7.5951946  )
        44           Ba  tau(  44) = (   7.5951947  22.7855840  15.1903893  )
        45           Ba  tau(  45) = (   0.0000000   7.5951950   0.0000000  )
        46           Ba  tau(  46) = (   0.0000000   0.0000000  15.1903893  )
        47           Ba  tau(  47) = (  22.7855840  15.1903893  22.7855840  )
        48           Ba  tau(  48) = (  15.1903893   0.0000000   7.5951945  )
        49           Ba  tau(  49) = (  15.1903893   0.0000000  22.7855842  )
        50           Ba  tau(  50) = (   0.0000000   7.5951948   7.5951948  )
        51           Ba  tau(  51) = (  22.7855840  22.7855840  15.1903893  )
        52           Ba  tau(  52) = (  15.1903893   0.0000000  15.1903893  )
        53           Ba  tau(  53) = (   7.5951948  22.7855839   0.0000000  )
        54           Ba  tau(  54) = (  22.7855841  15.1903893  15.1903893  )
        55           Ba  tau(  55) = (   0.0000000   0.0000000  22.7855837  )
        56           Ba  tau(  56) = (   0.0000000   7.5951945  15.1903893  )
        57           Ba  tau(  57) = (  22.7855842  15.1903893   0.0000000  )
        58           Ba  tau(  58) = (   7.5951947  15.1903893  22.7855840  )
        59           Ba  tau(  59) = (  22.7855840  15.1903893   7.5951947  )
        60           Ba  tau(  60) = (   7.5951946  22.7855840  22.7855840  )
[...]
       306           O   tau( 306) = (  11.3927920  22.7855840  18.9879867  )
       307           O   tau( 307) = (   7.5951947  26.5831814  18.9879867  )
       308           O   tau( 308) = (  11.3927920  15.1903893  26.5831814  )
       309           O   tau( 309) = (  11.3927920  11.3927920  22.7855840  )
       310           O   tau( 310) = (  11.3927920  15.1903893  11.3927920  )
       311           O   tau( 311) = (  22.7855840  26.5831814  26.5831814  )
       312           O   tau( 312) = (   7.5951947  11.3927920  18.9879867  )
       313           O   tau( 313) = (  11.3927920  11.3927920   0.0000000  )
       314           O   tau( 314) = (  11.3927920   7.5951947  18.9879867  )
       315           O   tau( 315) = (  11.3927920  11.3927920   7.5951947  )
       316           O   tau( 316) = (  11.3927920  11.3927920  15.1903893  )
       317           O   tau( 317) = (   7.5951947  11.3927920  11.3927920  )
       318           O   tau( 318) = (  11.3927920   7.5951947  11.3927920  )
       319           O   tau( 319) = (   7.5951947  11.3927920   3.7975973  )
       320           O   tau( 320) = (  11.3927920   7.5951947   3.7975973  )

   Crystallographic axes

     site n.     atom                  positions (cryst. coord.)
         1           Ba  tau(   1) = (  0.0000000  0.0000000  0.0000000  )
         2           Ba  tau(   2) = (  0.5000000  0.5000000  0.0000000  )
         3           Ba  tau(   3) = (  0.0000000  0.7500000  0.2500000  )
         4           Ba  tau(   4) = (  0.7500000  0.0000000  0.7500000  )
         5           Ba  tau(   5) = (  0.2500000  0.5000000  0.0000000  )
         6           Ba  tau(   6) = (  0.0000000  0.7500000  0.0000000  )
         7           Ba  tau(   7) = (  0.5000000  0.2500000  0.7500000  )
         8           Ba  tau(   8) = (  0.7500000  0.2500000  0.0000000  )
         9           Ba  tau(   9) = (  0.7500000  0.0000000  0.5000000  )
        10           Ba  tau(  10) = (  0.0000000  0.5000000  0.7500000  )
        11           Ba  tau(  11) = (  0.7500000  0.2500000  0.2500000  )
        12           Ba  tau(  12) = (  0.0000000  0.5000000  0.5000000  )
        13           Ba  tau(  13) = (  0.5000000  0.7500000  0.0000000  )
[...]
qe|run_pwscf|setup_sirius                                         :      1     3.4278     3.4278     3.4278     3.4278       0.41
qe|veff                                                           :     23     7.5441     0.1992     2.0751     0.3280      88.70
sddk::FFT3D::FFT3D                                                :      2     0.3145     0.0146     0.2999     0.1572     100.00
sddk::FFT3D::prepare                                              :     95     0.1789     0.0016     0.0047     0.0019       0.35
sddk::FFT3D::prepare|gpu                                          :     95     0.1743     0.0015     0.0045     0.0018     100.00
sddk::FFT3D::transform                                            :   3147     3.0107     0.0005     0.0437     0.0010       0.71
sddk::FFT3D::transform_xy                                         :   3147     1.8450     0.0003     0.0009     0.0006     100.00
sddk::FFT3D::transform_z                                          :   3147     1.1444     0.0001     0.0434     0.0004      27.79
sddk::FFT3D::transform_z_serial                                   :   3147     0.4885     0.0001     0.0038     0.0002     100.00
sddk::FFT3D::transform_z|comm                                     :     98     0.3379     0.0015     0.0426     0.0034     100.00
sddk::Gvec::find_gvec_shells                                      :      3     0.1926     0.0097     0.1385     0.0642     100.00
sddk::Gvec::init                                                  :      3     0.3125     0.0160     0.2227     0.1042      38.36
sddk::matrix_storage::matrix_storage                              :    143     0.1262     0.0000     0.0294     0.0009     100.00
sddk::matrix_storage::remap_backward                              :    109     2.0323     0.0010     0.1687     0.0186     100.00
sddk::matrix_storage::remap_forward                               :    132     3.3933     0.0017     0.2218     0.0257     100.00
sddk::wave_functions::inner                                       :    303    27.7203     0.0048     0.6373     0.0915     100.00
sddk::wave_functions::orthogonalize                               :    109    65.1583     0.0505     3.3465     0.5978       0.44
sddk::wave_functions::orthogonalize|potrf                         :    109     1.7655     0.0002     0.2088     0.0162     100.00
sddk::wave_functions::orthogonalize|trtri                         :    109     1.0928     0.0001     0.1218     0.0100     100.00
sddk::wave_functions::transform                                   :    530    69.4628     0.0047     0.8340     0.1311      99.99
sirius::Atom_type::init                                           :      3     0.0113     0.0018     0.0073     0.0038     100.00
sirius::Augmentation_operator::generate_pw_coeffs                 :      2     0.2539     0.1227     0.1311     0.1269     100.00
sirius::Band::apply_h_o                                           :    109    47.4393     0.0139     5.6703     0.4352       0.55
sirius::Band::diag_pseudo_potential                               :     23   341.1119     2.0991    39.4863    14.8310       0.04
sirius::Band::diag_pseudo_potential_davidson                      :     23   340.8560     2.0881    39.4754    14.8198       0.05
sirius::Band::diag_pseudo_potential_davidson|alloc                :     23     0.1998     0.0085     0.0104     0.0087      95.15
sirius::Band::diag_pseudo_potential_davidson|evp                  :    108   198.6385     0.4203     4.6423     1.8392       0.00
sirius::Band::diag_pseudo_potential_davidson|iter                 :     23   340.4129     2.0691    39.4564    14.8006       0.00
sirius::Band::diag_pseudo_potential_davidson|update_phi           :     24     9.1079     0.1371     1.0068     0.3795       0.01
sirius::Band::get_h_diag                                          :     23     0.0599     0.0026     0.0029     0.0026     100.00
sirius::Band::get_o_diag                                          :     23     0.0213     0.0009     0.0011     0.0009     100.00
sirius::Band::initialize_subspace                                 :      1     8.6535     8.6535     8.6535     8.6535       0.04
sirius::Band::initialize_subspace|kp                              :      1     8.5946     8.5946     8.5946     8.5946       0.66
sirius::Band::initialize_subspace|kp|wf                           :      1     0.0249     0.0249     0.0249     0.0249     100.00
sirius::Band::residuals                                           :    108    12.8203     0.0000     0.7081     0.1187       1.40
sirius::Band::residuals_aux                                       :     92     0.1297     0.0003     0.0082     0.0014     100.00
sirius::Band::set_subspace_mtrx                                   :    109    13.2263     0.0100     0.5958     0.1213       0.35
sirius::Band::solve_for_kset                                      :     23   342.2383     2.1395    39.5258    14.8799       0.00
sirius::Beta_projectors_base::generate                            :    264     0.1052     0.0002     0.0322     0.0004     100.00
sirius::Beta_projectors_base::inner                               :    264    45.1108     0.0007     3.4148     0.1709     100.00
sirius::Beta_projectors_base::prepare                             :     47     0.0227     0.0004     0.0006     0.0005     100.00
sirius::DFT_ground_state::ewald_energy                            :      1     0.0235     0.0235     0.0235     0.0235     100.00
sirius::Density::add_k_point_contribution_dm                      :     23    11.0566     0.3644     1.2436     0.4807       0.32
sirius::Density::add_k_point_contribution_rg                      :     23     0.7875     0.0340     0.0348     0.0342      12.95
sirius::Density::augment                                          :     23     0.2580     0.0112     0.0113     0.0112       1.14
sirius::Density::generate_pseudo_core_charge_density              :      1     0.0668     0.0668     0.0668     0.0668       0.46
sirius::Density::generate_rho_aug                                 :     23     0.2550     0.0110     0.0111     0.0111     100.00
sirius::Density::generate_valence                                 :     23    16.1649     0.5346     1.6313     0.7028      14.03
sirius::Density::initial_density                                  :      1     0.0621     0.0621     0.0621     0.0621       8.79
sirius::K_point::generate_gkvec                                   :      1     0.0187     0.0187     0.0187     0.0187      14.29
sirius::K_point::initialize                                       :      1     0.0328     0.0328     0.0328     0.0328      11.07
sirius::Local_operator::apply_h                                   :    109     7.3974     0.0047     0.4066     0.0679      17.18
sirius::Local_operator::prepare                                   :     48     1.2645     0.0036     0.1857     0.0263      54.76
sirius::Non_local_operator::apply                                 :    436     5.5673     0.0016     0.1070     0.0128     100.00
sirius::Periodic_function::inner                                  :     69     0.0252     0.0002     0.0008     0.0004      60.22
sirius::Potential::Potential                                      :      1     0.2435     0.2435     0.2435     0.2435      13.06
sirius::Potential::generate_D_operator_matrix                     :     24     0.3368     0.0120     0.0251     0.0140     100.00
sirius::Potential::generate_local_potential                       :      1     0.2117     0.2117     0.2117     0.2117       0.07
sirius::Radial_integrals|aug                                      :      1     0.0454     0.0454     0.0454     0.0454     100.00
sirius::Radial_integrals|beta                                     :      2     0.2075     0.1019     0.1056     0.1038     100.00
sirius::Radial_integrals|rho_core_pseudo                          :      1     0.0187     0.0187     0.0187     0.0187     100.00
sirius::Radial_integrals|rho_pseudo                               :      1     0.0195     0.0195     0.0195     0.0195     100.00
sirius::Radial_integrals|vloc                                     :      1     0.1542     0.1542     0.1542     0.1542     100.00
sirius::Simulation_context::initialize                            :      1     3.3802     3.3802     3.3802     3.3802       0.11
sirius::Simulation_context_base::initialize                       :      1     3.1228     3.1228     3.1228     3.1228      38.28
sirius::Simulation_context_base::make_periodic_function           :      3     0.0735     0.0194     0.0347     0.0245     100.00
sirius::Smooth_periodic_function::fft_transform                   :    121     1.3608     0.0068     0.0979     0.0112      62.19
sirius::Smooth_periodic_function::gather_f_pw                     :     73     1.3989     0.0088     0.1560     0.0192     100.00
sirius::Symmetry::Symmetry                                        :      1     0.8507     0.8507     0.8507     0.8507     100.00
sirius::Symmetry::check_gvec_symmetry                             :      2     0.1588     0.0376     0.1212     0.0794     100.00
sirius::Unit_cell::find_nearest_neighbours                        :      1     0.0314     0.0314     0.0314     0.0314     100.00
sirius::Unit_cell::get_symmetry                                   :      1     0.8538     0.8538     0.8538     0.8538       0.36
sirius::Unit_cell::initialize                                     :      1     0.9001     0.9001     0.9001     0.9001       0.41
+global_timer (  385.5886s, 0.02 % of self, 100.00 % of total)
|--qe|run_pwscf (  385.5282s, 99.98 %)
qe|electrons (  379.3858s, 0.00 % of self, 98.39 % of total)
|--qe|electrons|scf (  369.9597s, 97.52 %)
|--qe|electrons|init (    9.4254s, 2.48 %)
qe|electrons|init (    9.4254s, 3.06 % of self, 2.44 % of total)
|--sirius::Band::initialize_subspace (    8.6535s, 91.81 %)
|--sirius::Potential::Potential (    0.2435s, 2.58 %)
|--sirius::Density::generate_pseudo_core_charge_density (    0.0668s, 0.71 %)
|--sirius::Density::initial_density (    0.0621s, 0.66 %)
|--sirius::Smooth_periodic_function::gather_f_pw (    0.0495s, 0.52 %)
|--sirius::DFT_ground_state::ewald_energy (    0.0235s, 0.25 %)
|--sirius::Potential::generate_D_operator_matrix (    0.0191s, 0.20 %)
|--sirius::Smooth_periodic_function::fft_transform (    0.0181s, 0.19 %)
|--sirius::Band::Band (    0.0005s, 0.01 %)
qe|electrons|scf (  369.9597s, 0.00 % of self, 95.95 % of total)
|--sirius::Band::solve_for_kset (  342.2383s, 92.51 %)
|--sirius::Density::generate_valence (   16.1649s, 4.37 %)
|--qe|veff (    7.5441s, 2.04 %)
|--qe|mix (    3.7183s, 1.01 %)
|--sirius::Smooth_periodic_function::fft_transform (    0.2677s, 0.07 %)
|--sirius::Periodic_function::inner (    0.0152s, 0.00 %)
qe|run_pwscf (  385.5282s, 0.39 % of self, 99.98 % of total)
|--qe|run_pwscf|electrons (  379.3862s, 98.41 %)
|--qe|run_pwscf|setup_sirius (    3.4278s, 0.89 %)
|--qe|run_pwscf|init_run (    1.1356s, 0.29 %)
|--qe|run_pwscf|setup (    0.0887s, 0.02 %)
|--qe|run_pwscf|forces (    0.0000s, 0.00 %)
|--qe|run_pwscf|punch (    0.0000s, 0.00 %)
|--qe|run_pwscf|ions (    0.0000s, 0.00 %)
|--qe|run_pwscf|stress (    0.0000s, 0.00 %)
qe|run_pwscf|electrons (  379.3862s, 0.00 % of self, 98.39 % of total)
|--qe|electrons (  379.3858s, 100.00 %)
qe|veff (    7.5441s, 88.70 % of self, 1.96 % of total)
|--sirius::Smooth_periodic_function::fft_transform (    0.5348s, 7.09 %)
|--sirius::Potential::generate_D_operator_matrix (    0.3177s, 4.21 %)
sddk::wave_functions::orthogonalize (   65.1583s, 0.44 % of self, 16.90 % of total)
|--sddk::wave_functions::transform (   47.4715s, 72.86 %)
|--sddk::wave_functions::inner (   14.5405s, 22.32 %)
|--sddk::wave_functions::orthogonalize|potrf (    1.7655s, 2.71 %)
|--sddk::wave_functions::orthogonalize|trtri (    1.0928s, 1.68 %)
sddk::wave_functions::transform (   69.4628s, 99.99 % of self, 18.01 % of total)
|--sddk::wave_functions::transform|init (    0.0092s, 0.01 %)
sirius::Band::apply_h_o (   47.4393s, 0.55 % of self, 12.30 % of total)
|--sirius::Beta_projectors_base::inner (   34.1212s, 71.93 %)
|--sirius::Local_operator::apply_h (    7.3974s, 15.59 %)
|--sirius::Non_local_operator::apply (    5.5673s, 11.74 %)
|--sirius::Beta_projectors_base::generate (    0.0929s, 0.20 %)
sirius::Band::diag_pseudo_potential (  341.1119s, 0.04 % of self, 88.47 % of total)
|--sirius::Band::diag_pseudo_potential_davidson (  340.8560s, 99.92 %)
|--sirius::Local_operator::prepare (    0.0851s, 0.02 %)
|--sddk::FFT3D::prepare (    0.0365s, 0.01 %)
|--sirius::Non_local_operator::Non_local_operator (    0.0031s, 0.00 %)
sirius::Band::diag_pseudo_potential_davidson (  340.8560s, 0.05 % of self, 88.40 % of total)
|--sirius::Band::diag_pseudo_potential_davidson|iter (  340.4129s, 99.87 %)
|--sirius::Band::diag_pseudo_potential_davidson|alloc (    0.1998s, 0.06 %)
|--sirius::Band::get_h_diag (    0.0599s, 0.02 %)
|--sirius::Band::get_o_diag (    0.0213s, 0.01 %)
|--sirius::Beta_projectors_base::dismiss (    0.0027s, 0.00 %)
|--sirius::Band::diag_pseudo_potential_davidson|wf (    0.0010s, 0.00 %)
sirius::Band::diag_pseudo_potential_davidson|evp (  198.6385s, 0.00 % of self, 51.52 % of total)
|--Eigenproblem_elpa1|diag (  198.6376s, 100.00 %)
sirius::Band::diag_pseudo_potential_davidson|iter (  340.4129s, 0.00 % of self, 88.28 % of total)
|--sirius::Band::diag_pseudo_potential_davidson|evp (  198.6385s, 58.35 %)
|--sddk::wave_functions::orthogonalize (   61.8118s, 18.16 %)
|--sirius::Band::apply_h_o (   45.3975s, 13.34 %)
|--sirius::Band::residuals (   12.8203s, 3.77 %)
|--sirius::Band::set_subspace_mtrx (   12.6305s, 3.71 %)
|--sirius::Band::diag_pseudo_potential_davidson|update_phi (    9.1079s, 2.68 %)
sirius::Band::diag_pseudo_potential_davidson|update_phi (    9.1079s, 0.01 % of self, 2.36 % of total)
|--sddk::wave_functions::transform (    9.1073s, 99.99 %)
sirius::Band::initialize_subspace (    8.6535s, 0.04 % of self, 2.24 % of total)
|--sirius::Band::initialize_subspace|kp (    8.5946s, 99.32 %)
|--sirius::Local_operator::prepare (    0.0557s, 0.64 %)
sirius::Band::initialize_subspace|kp (    8.5946s, 0.66 % of self, 2.23 % of total)
|--sddk::wave_functions::orthogonalize (    3.3465s, 38.94 %)
|--sirius::Band::apply_h_o (    2.0418s, 23.76 %)
|--Eigenproblem_elpa1|diag (    2.0323s, 23.65 %)
|--sirius::Band::set_subspace_mtrx (    0.5958s, 6.93 %)
|--sddk::wave_functions::transform (    0.3725s, 4.33 %)
|--sddk::matrix_storage::matrix_storage (    0.1167s, 1.36 %)
|--sirius::Band::initialize_subspace|kp|wf (    0.0249s, 0.29 %)
|--sirius::Local_operator::prepare (    0.0045s, 0.05 %)
|--sddk::FFT3D::prepare (    0.0018s, 0.02 %)
|--sirius::Beta_projectors_base::prepare (    0.0005s, 0.01 %)
|--sirius::Non_local_operator::Non_local_operator (    0.0001s, 0.00 %)
|--sirius::Beta_projectors_base::dismiss (    0.0001s, 0.00 %)
sirius::Band::residuals (   12.8203s, 1.40 % of self, 3.32 % of total)
|--sddk::wave_functions::transform (   12.5114s, 97.59 %)
|--sirius::Band::residuals_aux (    0.1297s, 1.01 %)
sirius::Band::set_subspace_mtrx (   13.2263s, 0.35 % of self, 3.43 % of total)
|--sddk::wave_functions::inner (   13.1798s, 99.65 %)
sirius::Band::solve_for_kset (  342.2383s, 0.00 % of self, 88.76 % of total)
|--sirius::Band::diag_pseudo_potential (  341.1119s, 99.67 %)
|--sirius::Local_operator::prepare (    1.1192s, 0.33 %)
|--sirius::K_point_set::sync_band_energies (    0.0002s, 0.00 %)
sirius::Density::add_k_point_contribution_dm (   11.0566s, 0.32 % of self, 2.87 % of total)
|--sirius::Beta_projectors_base::inner (   10.9896s, 99.39 %)
|--sirius::Beta_projectors_base::prepare (    0.0125s, 0.11 %)
|--sirius::Beta_projectors_base::generate (    0.0124s, 0.11 %)
|--sirius::Beta_projectors_base::dismiss (    0.0068s, 0.06 %)
sirius::Density::generate_valence (   16.1649s, 14.03 % of self, 4.19 % of total)
|--sirius::Density::add_k_point_contribution_dm (   11.0566s, 68.40 %)
|--sddk::matrix_storage::remap_forward (    1.0806s, 6.68 %)
|--sirius::Density::add_k_point_contribution_rg (    0.7875s, 4.87 %)
|--sirius::Smooth_periodic_function::gather_f_pw (    0.4727s, 2.92 %)
|--sirius::Density::augment (    0.2580s, 1.60 %)
|--sirius::Smooth_periodic_function::fft_transform (    0.1923s, 1.19 %)
|--sddk::FFT3D::prepare (    0.0494s, 0.31 %)
sirius::Local_operator::apply_h (    7.3974s, 17.18 % of self, 1.92 % of total)
|--sddk::matrix_storage::remap_forward (    2.3127s, 31.26 %)
|--sddk::matrix_storage::remap_backward (    2.0323s, 27.47 %)
|--sddk::FFT3D::transform (    1.7817s, 24.09 %)

     General routines

     Parallel routines

   This run was terminated on:  11: 3: 1  10Oct2017

   JOB DONE.