     Program PWSCF v.6.1 starts on 10Oct2017 at 10: 5:20

     Current dimensions of program PWSCF are:
     Max number of different atomic species (ntypx) = 10
     Max number of k-points (npk) =  40000
     Max angular momentum in pseudopotentials (lmaxx) =  3
     Message from routine iosys:
     minimal I/O required, wf_collect reset to FALSE

   Info: using nr1, nr2, nr3 values from input
     Found symmetry operation: I + ( -0.5000 -0.5000  0.0000)
     This is a supercell, fractional translations are disabled

     bravais-lattice index     =            0
     lattice parameter (alat)  =      30.3808  a.u.
     unit-cell volume          =   28041.2070 (a.u.)^3
     number of atoms/cell      =          320
     number of atomic types    =            3
     number of electrons       =      2560.00
     number of Kohn-Sham states=         1280
     kinetic-energy cutoff     =      40.0000  Ry
     charge density cutoff     =     320.0000  Ry
     convergence threshold     =      1.0E-09
     mixing beta               =       0.7000
     number of iterations used =            8  plain     mixing
     Exchange-correlation      =  SLA  PW   PBX  PBC ( 1  4  3  4 0 0)

     celldm(1)=  30.380779  celldm(2)=   0.000000  celldm(3)=   0.000000
     celldm(4)=   0.000000  celldm(5)=   0.000000  celldm(6)=   0.000000

     crystal axes: (cart. coord. in units of alat)
               a(1) = (   1.000000   0.000000   0.000000 )
               a(2) = (   0.000000   1.000000   0.000000 )
               a(3) = (   0.000000   0.000000   1.000000 )

     reciprocal axes: (cart. coord. in units 2 pi/alat)
               b(1) = (  1.000000  0.000000  0.000000 )
               b(2) = (  0.000000  1.000000  0.000000 )
               b(3) = (  0.000000  0.000000  1.000000 )

     PseudoPot. # 1 for Ba read from file:
     ./pseudo/Ba_ONCV_PBE-1.0.upf
     MD5 check sum: 77f30730067903d6b11ccba3a1a50403
     Pseudo is Norm-conserving, Zval = 10.0
     Generated using ONCVPSP code by D. R. Hamann
     Using radial grid of  602 points,  8 beta functions with:
                l(1) =   0
                l(2) =   0
                l(3) =   1
                l(4) =   1
                l(5) =   2
                l(6) =   2
                l(7) =   3
                l(8) =   3

     PseudoPot. # 2 for O  read from file:
     ./pseudo/O_pbe_v1.2.uspp.F.UPF
     MD5 check sum: 734c27235a0248c51dbae37a1fbe46ec
     Pseudo is Ultrasoft + core correction, Zval =  6.0
     Generated by new atomic code, or converted to UPF format
     Using radial grid of  737 points,  5 beta functions with:
                l(1) =   0
                l(2) =   0
                l(3) =   1
                l(4) =   1
                l(5) =   2
     Q(r) pseudized with  8 coefficients,  rinner =    0.900   0.900   0.900
                                                       0.900   0.900

     PseudoPot. # 3 for Ti read from file:
     ./pseudo/ti_pbe_v1.4.uspp.F.UPF
     MD5 check sum: 88a00a6731bd790ddea75d31a80cb452
     Pseudo is Ultrasoft + core correction, Zval = 12.0
     Generated by new atomic code, or converted to UPF format
     Using radial grid of  851 points,  6 beta functions with:
                l(1) =   0
                l(2) =   0
                l(3) =   1
                l(4) =   1
                l(5) =   2
                l(6) =   2
     Q(r) pseudized with  6 coefficients,  rinner =    1.000   1.000   1.000
                                                       1.000   1.000

     atomic species   valence    mass     pseudopotential
        Ba            10.00   137.33000     Ba( 1.00)
        O              6.00    15.99940     O ( 1.00)
        Ti            12.00    47.88000     Ti( 1.00)

     No symmetry found

                                    s                        frac. trans.

      isym =  1     identity

 cryst.   s( 1) = (     1          0          0      )
                  (     0          1          0      )
                  (     0          0          1      )

 cart.    s( 1) = (  1.0000000  0.0000000  0.0000000 )
                  (  0.0000000  1.0000000  0.0000000 )
                  (  0.0000000  0.0000000  1.0000000 )

   Cartesian axes

     site n.     atom                  positions (a.u.)
         1           Ba  tau(   1) = (   0.0000000   0.0000000   0.0000000  )
         2           Ba  tau(   2) = (  15.1903893  15.1903893   0.0000000  )
         3           Ba  tau(   3) = (   0.0000000  22.7855839   7.5951948  )
         4           Ba  tau(   4) = (  22.7855839   0.0000000  22.7855839  )
         5           Ba  tau(   5) = (   7.5951945  15.1903893   0.0000000  )
         6           Ba  tau(   6) = (   0.0000000  22.7855837   0.0000000  )
         7           Ba  tau(   7) = (  15.1903893   7.5951947  22.7855840  )
         8           Ba  tau(   8) = (  22.7855839   7.5951948   0.0000000  )
         9           Ba  tau(   9) = (  22.7855842   0.0000000  15.1903893  )
        10           Ba  tau(  10) = (   0.0000000  15.1903893  22.7855842  )
        11           Ba  tau(  11) = (  22.7855840   7.5951946   7.5951946  )
        12           Ba  tau(  12) = (   0.0000000  15.1903893  15.1903893  )
        13           Ba  tau(  13) = (  15.1903893  22.7855842   0.0000000  )
        14           Ba  tau(  14) = (  22.7855840   7.5951947  15.1903893  )
        15           Ba  tau(  15) = (   0.0000000  15.1903893   7.5951945  )
        16           Ba  tau(  16) = (   7.5951946  15.1903893  15.1903893  )
        17           Ba  tau(  17) = (  22.7855840   7.5951946  22.7855840  )
        18           Ba  tau(  18) = (   7.5951947  15.1903893   7.5951947  )
        19           Ba  tau(  19) = (  15.1903893   7.5951947   7.5951947  )
        20           Ba  tau(  20) = (   7.5951946   7.5951946  22.7855840  )
        21           Ba  tau(  21) = (  22.7855839   0.0000000   7.5951948  )
        22           Ba  tau(  22) = (   7.5951948   7.5951948   0.0000000  )
        23           Ba  tau(  23) = (   7.5951948   0.0000000  22.7855839  )
        24           Ba  tau(  24) = (  15.1903893  15.1903893  22.7855841  )
        25           Ba  tau(  25) = (  15.1903893  22.7855840   7.5951947  )
        26           Ba  tau(  26) = (   7.5951945   0.0000000  15.1903893  )
        27           Ba  tau(  27) = (   7.5951946   7.5951946   7.5951946  )
        28           Ba  tau(  28) = (  15.1903893  22.7855841  15.1903893  )
        29           Ba  tau(  29) = (   0.0000000  22.7855842  15.1903893  )
        30           Ba  tau(  30) = (   7.5951948   0.0000000   7.5951948  )
        31           Ba  tau(  31) = (  15.1903893  22.7855840  22.7855840  )
        32           Ba  tau(  32) = (   7.5951950   0.0000000   0.0000000  )
        33           Ba  tau(  33) = (  15.1903893   0.0000000   0.0000000  )
        34           Ba  tau(  34) = (   7.5951947   7.5951947  15.1903893  )
        35           Ba  tau(  35) = (  22.7855837   0.0000000   0.0000000  )
        36           Ba  tau(  36) = (   0.0000000  22.7855839  22.7855839  )
        37           Ba  tau(  37) = (  15.1903893  15.1903893   7.5951946  )
        38           Ba  tau(  38) = (  15.1903893  15.1903893  15.1903893  )
        39           Ba  tau(  39) = (   0.0000000  15.1903893   0.0000000  )
        40           Ba  tau(  40) = (  15.1903893   7.5951946  15.1903893  )
        41           Ba  tau(  41) = (   7.5951946  22.7855840   7.5951946  )
        42           Ba  tau(  42) = (  22.7855839  22.7855839   0.0000000  )
        43           Ba  tau(  43) = (  22.7855840  22.7855840   7.5951946  )
        44           Ba  tau(  44) = (   7.5951947  22.7855840  15.1903893  )
        45           Ba  tau(  45) = (   0.0000000   7.5951950   0.0000000  )
        46           Ba  tau(  46) = (   0.0000000   0.0000000  15.1903893  )
        47           Ba  tau(  47) = (  22.7855840  15.1903893  22.7855840  )
        48           Ba  tau(  48) = (  15.1903893   0.0000000   7.5951945  )
        49           Ba  tau(  49) = (  15.1903893   0.0000000  22.7855842  )
        50           Ba  tau(  50) = (   0.0000000   7.5951948   7.5951948  )
        51           Ba  tau(  51) = (  22.7855840  22.7855840  15.1903893  )
        52           Ba  tau(  52) = (  15.1903893   0.0000000  15.1903893  )
        53           Ba  tau(  53) = (   7.5951948  22.7855839   0.0000000  )
        54           Ba  tau(  54) = (  22.7855841  15.1903893  15.1903893  )
        55           Ba  tau(  55) = (   0.0000000   0.0000000  22.7855837  )
        56           Ba  tau(  56) = (   0.0000000   7.5951945  15.1903893  )
        57           Ba  tau(  57) = (  22.7855842  15.1903893   0.0000000  )
        58           Ba  tau(  58) = (   7.5951947  15.1903893  22.7855840  )
        59           Ba  tau(  59) = (  22.7855840  15.1903893   7.5951947  )
        60           Ba  tau(  60) = (   7.5951946  22.7855840  22.7855840  )
[...]
       306           O   tau( 306) = (  11.3927920  22.7855840  18.9879867  )
       307           O   tau( 307) = (   7.5951947  26.5831814  18.9879867  )
       308           O   tau( 308) = (  11.3927920  15.1903893  26.5831814  )
       309           O   tau( 309) = (  11.3927920  11.3927920  22.7855840  )
       310           O   tau( 310) = (  11.3927920  15.1903893  11.3927920  )
       311           O   tau( 311) = (  22.7855840  26.5831814  26.5831814  )
       312           O   tau( 312) = (   7.5951947  11.3927920  18.9879867  )
       313           O   tau( 313) = (  11.3927920  11.3927920   0.0000000  )
       314           O   tau( 314) = (  11.3927920   7.5951947  18.9879867  )
       315           O   tau( 315) = (  11.3927920  11.3927920   7.5951947  )
       316           O   tau( 316) = (  11.3927920  11.3927920  15.1903893  )
       317           O   tau( 317) = (   7.5951947  11.3927920  11.3927920  )
       318           O   tau( 318) = (  11.3927920   7.5951947  11.3927920  )
       319           O   tau( 319) = (   7.5951947  11.3927920   3.7975973  )
       320           O   tau( 320) = (  11.3927920   7.5951947   3.7975973  )

   Crystallographic axes

     site n.     atom                  positions (cryst. coord.)
         1           Ba  tau(   1) = (  0.0000000  0.0000000  0.0000000  )
         2           Ba  tau(   2) = (  0.5000000  0.5000000  0.0000000  )
         3           Ba  tau(   3) = (  0.0000000  0.7500000  0.2500000  )
         4           Ba  tau(   4) = (  0.7500000  0.0000000  0.7500000  )
         5           Ba  tau(   5) = (  0.2500000  0.5000000  0.0000000  )
         6           Ba  tau(   6) = (  0.0000000  0.7500000  0.0000000  )
         7           Ba  tau(   7) = (  0.5000000  0.2500000  0.7500000  )
         8           Ba  tau(   8) = (  0.7500000  0.2500000  0.0000000  )
         9           Ba  tau(   9) = (  0.7500000  0.0000000  0.5000000  )
        10           Ba  tau(  10) = (  0.0000000  0.5000000  0.7500000  )
        11           Ba  tau(  11) = (  0.7500000  0.2500000  0.2500000  )
        12           Ba  tau(  12) = (  0.0000000  0.5000000  0.5000000  )
        13           Ba  tau(  13) = (  0.5000000  0.7500000  0.0000000  )
[...]
sddk::FFT3D::prepare|gpu                                          :     95     0.1647     0.0014     0.0025     0.0017     100.00
sddk::FFT3D::transform                                            :   3147     3.0749     0.0005     0.0234     0.0010       0.75
sddk::FFT3D::transform_xy                                         :   3147     1.8396     0.0002     0.0009     0.0006     100.00
sddk::FFT3D::transform_z                                          :   3147     1.2123     0.0001     0.0216     0.0004      26.25
sddk::FFT3D::transform_z_serial                                   :   3147     0.4894     0.0001     0.0046     0.0002     100.00
sddk::FFT3D::transform_z|comm                                     :     98     0.4047     0.0014     0.0208     0.0041     100.00
sddk::Gvec::find_gvec_shells                                      :      3     0.1999     0.0107     0.1426     0.0666     100.00
sddk::Gvec::init                                                  :      3     0.3222     0.0177     0.2274     0.1074      37.96
sddk::matrix_storage::matrix_storage                              :    143     0.1303     0.0000     0.0301     0.0009     100.00
sddk::matrix_storage::remap_backward                              :    109     1.5476     0.0008     0.0575     0.0142     100.00
sddk::matrix_storage::remap_forward                               :    132     2.6716     0.0017     0.1084     0.0202     100.00
sddk::wave_functions::inner                                       :    303    21.7159     0.0050     0.4444     0.0717     100.00
sddk::wave_functions::orthogonalize                               :    109    57.7219     0.0496     3.1163     0.5296       0.51
sddk::wave_functions::orthogonalize|potrf                         :    109     1.4981     0.0001     0.2151     0.0137     100.00
sddk::wave_functions::orthogonalize|trtri                         :    109     0.7622     0.0001     0.1220     0.0070     100.00
sddk::wave_functions::transform                                   :    530    65.1876     0.0048     0.7930     0.1230      99.99
sirius::Atom_type::init                                           :      3     0.0112     0.0016     0.0065     0.0037     100.00
sirius::Augmentation_operator::generate_pw_coeffs                 :      2     0.2621     0.1263     0.1358     0.1311     100.00
sirius::Band::apply_h_o                                           :    109    33.8442     0.0135     1.5047     0.3105       0.76
sirius::Band::diag_pseudo_potential                               :     23   300.1131     2.1939    35.0516    13.0484       0.04
sirius::Band::diag_pseudo_potential_davidson                      :     23   299.8587     2.1828    35.0406    13.0373       0.05
sirius::Band::diag_pseudo_potential_davidson|alloc                :     23     0.2018     0.0085     0.0104     0.0088      95.27
sirius::Band::diag_pseudo_potential_davidson|evp                  :    108   181.0181     0.4173     3.5537     1.6761       0.00
sirius::Band::diag_pseudo_potential_davidson|iter                 :     23   299.4144     2.1635    35.0217    13.0180       0.00
sirius::Band::diag_pseudo_potential_davidson|update_phi           :     24     8.7532     0.1751     1.0220     0.3647       0.01
sirius::Band::get_h_diag                                          :     23     0.0599     0.0026     0.0030     0.0026     100.00
sirius::Band::get_o_diag                                          :     23     0.0210     0.0009     0.0009     0.0009     100.00
sirius::Band::initialize_subspace                                 :      1     7.6000     7.6000     7.6000     7.6000       0.03
sirius::Band::initialize_subspace|kp                              :      1     7.5397     7.5397     7.5397     7.5397       0.73
sirius::Band::initialize_subspace|kp|wf                           :      1     0.0246     0.0246     0.0246     0.0246     100.00
sirius::Band::residuals                                           :    108    12.4862     0.0000     0.4159     0.1156       1.71
sirius::Band::residuals_aux                                       :     92     0.1665     0.0004     0.0179     0.0018     100.00
sirius::Band::set_subspace_mtrx                                   :    109    10.6156     0.0125     0.4087     0.0974       0.44
sirius::Band::solve_for_kset                                      :     23   301.1235     2.2551    35.0929    13.0923       0.00
sirius::Beta_projectors_base::generate                            :    264     0.1061     0.0002     0.0333     0.0004     100.00
sirius::Beta_projectors_base::inner                               :    264    29.2216     0.0006     0.5510     0.1107     100.00
sirius::Beta_projectors_base::prepare                             :     47     0.0220     0.0004     0.0006     0.0005     100.00
sirius::DFT_ground_state::ewald_energy                            :      1     0.0225     0.0225     0.0225     0.0225     100.00
sirius::Density::add_k_point_contribution_dm                      :     23     8.1158     0.2931     0.3934     0.3529       0.42
sirius::Density::add_k_point_contribution_rg                      :     23     0.7867     0.0336     0.0346     0.0342      12.94
sirius::Density::augment                                          :     23     0.2573     0.0111     0.0113     0.0112       1.17
sirius::Density::generate_pseudo_core_charge_density              :      1     0.0683     0.0683     0.0683     0.0683       0.79
sirius::Density::generate_rho_aug                                 :     23     0.2543     0.0109     0.0111     0.0111     100.00
sirius::Density::generate_valence                                 :     23    11.6653     0.4422     0.5542     0.5072      11.92
sirius::Density::initial_density                                  :      1     0.0583     0.0583     0.0583     0.0583       8.39
sirius::K_point::generate_gkvec                                   :      1     0.0194     0.0194     0.0194     0.0194       8.72
sirius::K_point::initialize                                       :      1     0.0339     0.0339     0.0339     0.0339       7.19
sirius::Local_operator::apply_h                                   :    109     6.7522     0.0047     0.3294     0.0619      19.28
sirius::Local_operator::prepare                                   :     48     1.1508     0.0036     0.0610     0.0240      60.00
sirius::Non_local_operator::apply                                 :    436     5.5699     0.0015     0.1101     0.0128     100.00
sirius::Periodic_function::inner                                  :     69     0.0275     0.0002     0.0008     0.0004      59.30
sirius::Potential::Potential                                      :      1     0.2350     0.2350     0.2350     0.2350      11.62
sirius::Potential::generate_D_operator_matrix                     :     24     0.3491     0.0117     0.0409     0.0145     100.00
sirius::Potential::generate_local_potential                       :      1     0.2077     0.2077     0.2077     0.2077       0.06
sirius::Radial_integrals|aug                                      :      1     0.0487     0.0487     0.0487     0.0487     100.00
sirius::Radial_integrals|beta                                     :      2     0.2145     0.1050     0.1095     0.1073     100.00
sirius::Radial_integrals|rho_core_pseudo                          :      1     0.0203     0.0203     0.0203     0.0203     100.00
sirius::Radial_integrals|rho_pseudo                               :      1     0.0189     0.0189     0.0189     0.0189     100.00
sirius::Radial_integrals|vloc                                     :      1     0.1579     0.1579     0.1579     0.1579     100.00
sirius::Simulation_context::initialize                            :      1     3.3655     3.3655     3.3655     3.3655       0.10
sirius::Simulation_context_base::initialize                       :      1     3.1002     3.1002     3.1002     3.1002      29.70
sirius::Simulation_context_base::make_periodic_function           :      3     0.0725     0.0181     0.0342     0.0242     100.00
sirius::Smooth_periodic_function::fft_transform                   :    121     1.0084     0.0061     0.0273     0.0083      42.49
sirius::Smooth_periodic_function::gather_f_pw                     :     73     0.9776     0.0093     0.0367     0.0134     100.00
sirius::Symmetry::Symmetry                                        :      1     0.8646     0.8646     0.8646     0.8646     100.00
sirius::Symmetry::check_gvec_symmetry                             :      2     0.1560     0.0370     0.1190     0.0780     100.00
sirius::Unit_cell::find_nearest_neighbours                        :      1     0.0318     0.0318     0.0318     0.0318     100.00
sirius::Unit_cell::get_symmetry                                   :      1     0.8668     0.8668     0.8668     0.8668       0.26
sirius::Unit_cell::initialize                                     :      1     0.9135     0.9135     0.9135     0.9135       0.41
+global_timer (  334.1230s, 0.02 % of self, 100.00 % of total)
|--qe|run_pwscf (  334.0639s, 99.98 %)
qe|electrons (  328.3758s, 0.00 % of self, 98.28 % of total)
|--qe|electrons|scf (  320.0363s, 97.46 %)
|--qe|electrons|init (    8.3384s, 2.54 %)
qe|electrons|init (    8.3384s, 2.97 % of self, 2.50 % of total)
|--sirius::Band::initialize_subspace (    7.6000s, 91.15 %)
|--sirius::Potential::Potential (    0.2350s, 2.82 %)
|--sirius::Density::generate_pseudo_core_charge_density (    0.0683s, 0.82 %)
|--sirius::Density::initial_density (    0.0583s, 0.70 %)
|--sirius::Smooth_periodic_function::gather_f_pw (    0.0433s, 0.52 %)
|--sirius::Potential::generate_D_operator_matrix (    0.0409s, 0.49 %)
|--sirius::DFT_ground_state::ewald_energy (    0.0225s, 0.27 %)
|--sirius::Smooth_periodic_function::fft_transform (    0.0219s, 0.26 %)
|--sirius::Band::Band (    0.0008s, 0.01 %)
qe|electrons|scf (  320.0363s, 0.00 % of self, 95.78 % of total)
|--sirius::Band::solve_for_kset (  301.1235s, 94.09 %)
|--sirius::Density::generate_valence (   11.6653s, 3.64 %)
|--qe|veff (    4.7929s, 1.50 %)
|--qe|mix (    2.2433s, 0.70 %)
|--sirius::Smooth_periodic_function::fft_transform (    0.1829s, 0.06 %)
|--sirius::Periodic_function::inner (    0.0163s, 0.01 %)
qe|run_pwscf (  334.0639s, 0.32 % of self, 99.98 % of total)
|--qe|run_pwscf|electrons (  328.3761s, 98.30 %)
|--qe|run_pwscf|setup_sirius (    3.4156s, 1.02 %)
|--qe|run_pwscf|init_run (    1.1348s, 0.34 %)
|--qe|run_pwscf|setup (    0.0631s, 0.02 %)
|--qe|run_pwscf|forces (    0.0000s, 0.00 %)
|--qe|run_pwscf|punch (    0.0000s, 0.00 %)
|--qe|run_pwscf|ions (    0.0000s, 0.00 %)
|--qe|run_pwscf|stress (    0.0000s, 0.00 %)
qe|run_pwscf|electrons (  328.3761s, 0.00 % of self, 98.28 % of total)
|--qe|electrons (  328.3758s, 100.00 %)
qe|run_pwscf|setup_sirius (    3.4156s, 0.45 % of self, 1.02 % of total)
|--sirius::Simulation_context::initialize (    3.3655s, 98.53 %)
|--sirius::K_point::initialize (    0.0339s, 0.99 %)
|--sirius::K_point_set::add_kpoints (    0.0009s, 0.03 %)
|--sirius::K_point_set::K_point_set (    0.0000s, 0.00 %)
qe|veff (    4.7929s, 85.95 % of self, 1.43 % of total)
|--sirius::Smooth_periodic_function::fft_transform (    0.3652s, 7.62 %)
|--sirius::Potential::generate_D_operator_matrix (    0.3082s, 6.43 %)
sddk::wave_functions::orthogonalize (   57.7219s, 0.51 % of self, 17.28 % of total)
|--sddk::wave_functions::transform (   44.0218s, 76.27 %)
|--sddk::wave_functions::inner (   11.1468s, 19.31 %)
|--sddk::wave_functions::orthogonalize|potrf (    1.4981s, 2.60 %)
|--sddk::wave_functions::orthogonalize|trtri (    0.7622s, 1.32 %)
sddk::wave_functions::transform (   65.1876s, 99.99 % of self, 19.51 % of total)
|--sddk::wave_functions::transform|init (    0.0095s, 0.01 %)
sirius::Band::apply_h_o (   33.8442s, 0.76 % of self, 10.13 % of total)
|--sirius::Beta_projectors_base::inner (   21.1703s, 62.55 %)
|--sirius::Local_operator::apply_h (    6.7522s, 19.95 %)
|--sirius::Non_local_operator::apply (    5.5699s, 16.46 %)
|--sirius::Beta_projectors_base::generate (    0.0937s, 0.28 %)
sirius::Band::diag_pseudo_potential (  300.1131s, 0.04 % of self, 89.82 % of total)
|--sirius::Band::diag_pseudo_potential_davidson (  299.8587s, 99.92 %)
|--sirius::Local_operator::prepare (    0.0841s, 0.03 %)
|--sddk::FFT3D::prepare (    0.0352s, 0.01 %)
|--sirius::Non_local_operator::Non_local_operator (    0.0031s, 0.00 %)
sirius::Band::diag_pseudo_potential_davidson (  299.8587s, 0.05 % of self, 89.74 % of total)
|--sirius::Band::diag_pseudo_potential_davidson|iter (  299.4144s, 99.85 %)
|--sirius::Band::diag_pseudo_potential_davidson|alloc (    0.2018s, 0.07 %)
|--sirius::Band::get_h_diag (    0.0599s, 0.02 %)
|--sirius::Band::get_o_diag (    0.0210s, 0.01 %)
|--sirius::Beta_projectors_base::dismiss (    0.0027s, 0.00 %)
|--sirius::Band::diag_pseudo_potential_davidson|wf (    0.0006s, 0.00 %)
sirius::Band::diag_pseudo_potential_davidson|evp (  181.0181s, 0.00 % of self, 54.18 % of total)
|--Eigenproblem_elpa1|diag (  181.0171s, 100.00 %)
sirius::Band::diag_pseudo_potential_davidson|iter (  299.4144s, 0.00 % of self, 89.61 % of total)
|--sirius::Band::diag_pseudo_potential_davidson|evp (  181.0181s, 60.46 %)
|--sddk::wave_functions::orthogonalize (   54.6055s, 18.24 %)
|--sirius::Band::apply_h_o (   32.3395s, 10.80 %)
|--sirius::Band::residuals (   12.4862s, 4.17 %)
|--sirius::Band::set_subspace_mtrx (   10.2070s, 3.41 %)
|--sirius::Band::diag_pseudo_potential_davidson|update_phi (    8.7532s, 2.92 %)
sirius::Band::diag_pseudo_potential_davidson|update_phi (    8.7532s, 0.01 % of self, 2.62 % of total)
|--sddk::wave_functions::transform (    8.7526s, 99.99 %)
sirius::Band::initialize_subspace (    7.6000s, 0.03 % of self, 2.27 % of total)
|--sirius::Band::initialize_subspace|kp (    7.5397s, 99.21 %)
|--sirius::Local_operator::prepare (    0.0580s, 0.76 %)
sirius::Band::initialize_subspace|kp (    7.5397s, 0.73 % of self, 2.26 % of total)
|--sddk::wave_functions::orthogonalize (    3.1163s, 41.33 %)
|--Eigenproblem_elpa1|diag (    1.9972s, 26.49 %)
|--sirius::Band::apply_h_o (    1.5047s, 19.96 %)
|--sirius::Band::set_subspace_mtrx (    0.4087s, 5.42 %)
|--sddk::wave_functions::transform (    0.3072s, 4.07 %)
|--sddk::matrix_storage::matrix_storage (    0.1192s, 1.58 %)
|--sirius::Band::initialize_subspace|kp|wf (    0.0246s, 0.33 %)
|--sirius::Local_operator::prepare (    0.0046s, 0.06 %)
|--sddk::FFT3D::prepare (    0.0015s, 0.02 %)
|--sirius::Beta_projectors_base::prepare (    0.0005s, 0.01 %)
|--sirius::Non_local_operator::Non_local_operator (    0.0001s, 0.00 %)
|--sirius::Beta_projectors_base::dismiss (    0.0001s, 0.00 %)
sirius::Band::residuals (   12.4862s, 1.71 % of self, 3.74 % of total)
|--sddk::wave_functions::transform (   12.1060s, 96.96 %)
|--sirius::Band::residuals_aux (    0.1665s, 1.33 %)
sirius::Band::set_subspace_mtrx (   10.6156s, 0.44 % of self, 3.18 % of total)
|--sddk::wave_functions::inner (   10.5691s, 99.56 %)
sirius::Band::solve_for_kset (  301.1235s, 0.00 % of self, 90.12 % of total)
|--sirius::Band::diag_pseudo_potential (  300.1131s, 99.66 %)
|--sirius::Local_operator::prepare (    1.0041s, 0.33 %)
|--sirius::K_point_set::sync_band_energies (    0.0002s, 0.00 %)
sirius::Density::add_k_point_contribution_dm (    8.1158s, 0.42 % of self, 2.43 % of total)
|--sirius::Beta_projectors_base::inner (    8.0513s, 99.21 %)
|--sirius::Beta_projectors_base::generate (    0.0123s, 0.15 %)
|--sirius::Beta_projectors_base::prepare (    0.0120s, 0.15 %)
|--sirius::Beta_projectors_base::dismiss (    0.0063s, 0.08 %)
sirius::Density::generate_valence (   11.6653s, 11.92 % of self, 3.49 % of total)
|--sirius::Density::add_k_point_contribution_dm (    8.1158s, 69.57 %)
|--sirius::Density::add_k_point_contribution_rg (    0.7867s, 6.74 %)
|--sddk::matrix_storage::remap_forward (    0.5480s, 4.70 %)
|--sirius::Smooth_periodic_function::gather_f_pw (    0.3267s, 2.80 %)
|--sirius::Density::augment (    0.2573s, 2.21 %)
|--sirius::Smooth_periodic_function::fft_transform (    0.1934s, 1.66 %)
|--sddk::FFT3D::prepare (    0.0473s, 0.41 %)
sirius::Local_operator::apply_h (    6.7522s, 19.28 % of self, 2.02 % of total)
|--sddk::matrix_storage::remap_forward (    2.1236s, 31.45 %)
|--sddk::FFT3D::transform (    1.7789s, 26.35 %)
|--sddk::matrix_storage::remap_backward (    1.5476s, 22.92 %)
sirius::Simulation_context::initialize (    3.3655s, 0.10 % of self, 1.01 % of total)
|--sirius::Simulation_context_base::initialize (    3.1002s, 92.12 %)
|--sirius::Augmentation_operator::generate_pw_coeffs (    0.2621s, 7.79 %)

     General routines

     Parallel routines

   This run was terminated on:  10:10:56  10Oct2017

   JOB DONE.